22
60
0
0
53
69
14
52
24
41
36
16
10
0
31
39
0
35
0
52
57
19
0
16
21
28
18
30
10
17
20
10
58
20
14
0
11
0
0
31
22
20
49
15
18
14
22
106
32
50
9
59
31
13
77
26
26
8
56
35
53
29
18
0
9
21
10
35
0
35
0
21
0
30
11
85
34
21
28
0
99
41
107
19
41
23
64
25
63
0
13
77
40
43
11
0
51
36
75
10
